
 102   30
  10   10   10   10   10   10   10   10   10   10   10   10   10   10   10   10   10   10   10   10   10   10   10   10   10   10   10   10   10   10

   0   0   0   0   0   0   0   0   0   0   0   0   0   0   0   0   0   0   0   0   0   0   0   0   0   0   0   0   0   0   0  28 2 3 4 5 6 7 8 9 10 11 12 13 14 15 16 17 18 19 20 21 23 24 26 27 28 30 38 40 
   4   0   0   0   2   0   0   0   0   0   0   0   0   1   0   0   1   0   0   0   0   0   1   0   0   0   0   2   0   2   0  14 64 62 60 58 56 55 52 51 49 48 44 39 33 22 
   6   0   0   1   0   3   0   0   1   1   0   0   0   0   0   0   0   0   0   0   0   0   8   0   0   0   0   0   0   0   0  15 72 71 70 65 62 56 52 50 48 47 44 42 36 31 25 
   9   0   1   0   0   0   0   0   0   0   0   0   1   2   0   1   0   0   0   0   0   1   0   0   1   1   0   0   0   0   0  15 72 59 58 53 52 51 49 47 45 44 42 41 39 31 25 
   8   0   0   0   0   0   0   0   0   0   0   0   0   0   0   0   7   0   0   0   0   0   0   0   0   0   0   0   0   4   0  15 93 73 72 69 66 62 59 57 54 51 48 42 39 37 34 
   2   0   0   0   0   0   0   3   0   0   0   0   0   0   0   0   0   0   2   0   0   0   0   0   0   0   0   0   0   6   0  12 91 71 65 62 59 54 53 51 43 41 31 29 
   4   0   8   0   0   0   0   0   0   0   0   2   0   0   0   0   0   0   0   0   0   0   0   0   0   0   0   0   0   0   0  15 101 100 97 95 94 73 72 65 62 59 52 51 49 46 29 
   4   0   0   0   0   0   1   6   0   0   0   6   0  10   0   0   8   0   0   3   1   0   0   0   0   0   0   0   0   5   0  14 96 93 73 72 70 64 62 57 56 45 44 42 39 32 
   1   0   5   0   0   0   0   0   0   0   0   0   0   0   0   0   0   0   0   0   0   0   0   0   0   0   0   7   0   0   0  16 101 97 96 93 71 67 65 64 60 56 53 52 49 48 44 35 
   4   0   8   0   0   3   0   0   0   4   0   0   0   0   1   0   0   0   0   0   0  10   0   3   0   0   0   0   0   0   0  15 101 98 94 72 71 67 66 61 57 51 48 47 43 42 31 
   1   0   0   0   0   0   9   0   0   0   0   7   0   0   0   0   0   1   0   0   0   0   0   0   8   0   0   0   1   0   0  19 101 100 99 97 93 88 72 70 67 65 64 63 62 61 58 53 51 49 44 
   6   0   0   0   0   0   0   0   0   0   0   0   0   0   0   0   0   5   0   0   0   0   0   0   4   0   0   0   6   0   0  17 99 96 90 81 72 70 69 68 67 66 64 59 58 57 53 48 39 
   6   0   0   0   0   0   1   0   0   7   0   0   8   0   0   0   0   0   4   0   0   0   0   0   0   0   0   0   7   0   0  15 97 73 70 69 67 66 65 62 61 60 58 53 52 50 48 
   6   4   0   0   0   0   8   0   0   0   0   0   0   0   0   0   4   0   0   0   0   0   0   5   0   0   0   0  10   0   0  16 101 99 96 93 90 83 72 70 68 67 66 64 60 53 48 39 
   1   4   0   0   0   0   0   0   0   0   0   0   0   0   0   0   0   0   0   2   0   0   0   0   0   0   0   0   0   0   0  15 98 97 94 91 87 73 65 62 61 60 58 56 54 48 41 
   3   0   0   0   0   0   0   5   0   0   0   6   5  10   0   0   0   0   6   0   0   0   0   0   0   0   0   0   0   0   0  19 101 100 99 97 96 95 92 91 87 73 72 62 61 60 58 57 56 53 46 
   9   0   7   0   0   0   0   3   7   0   0   0   0   0   0   0   0   0   0   0   6   0   0   0   0   0   2   0   0   0   0  13 96 94 93 72 70 68 67 66 56 54 52 43 42 
  10   0   0   0   0   5   0   0   0   0   0   0   0   0   0  10   0   0   0   9   0   0   0   0   4   0   0   0   0   0   0  17 100 96 93 91 90 86 71 67 66 64 63 61 58 57 53 44 42 
   4   0   0   5   0   0   0   0   0   0   0   4   0   2   0   0   0   0   6   7   0   0   0   0   0   0   0   0   0   6   3  16 100 99 98 94 91 89 88 71 68 67 66 65 61 58 57 31 
   7   0   0   0   0   0   0   0   0   0   1   0   0   0   0   0   0   0   0   0   0   0   0   0   0   0   0   0   0   0   0  11 101 96 84 70 67 66 62 57 49 42 32 
   2   0   0   0   0   0   0  10   0   0   0   0   0   0   0   0   0   0   0   0   0   0   0   0   0   0   0   0   0   0   0  12 101 100 98 96 94 93 92 91 86 73 46 42 
   8   0   0   0   8   3   0   0   0   0  10   0   0   7   0   5   0   0   0   0   0  10   3   0   9   0   0   8   0   0   0  19 101 97 96 93 91 86 85 84 83 81 78 73 72 70 68 67 66 63 53 
   5   4   4   0   0   0   5   0   8   0   0   8   8   0   0   0   0   6   0   5   0   0   0   0   0   0   0   0   0   0   0  18 101 99 93 92 89 88 87 83 81 78 77 75 72 71 67 64 62 56 
   9   9   0   0   0   0   0   0   0   0   0   0   0   0   0   0   0   0   0   0   0   0   0   0   0   0   0   0   0   0   0  18 101 98 96 94 93 91 90 89 87 86 79 76 71 68 64 61 60 57 
   3   0   0   0   0   9   0   0   0   5   0   0   6   0   0   7   0   0   0   0   0   0   0   0   0   0   0   0   0   0   0  20 100 99 98 97 94 93 92 91 90 89 88 87 84 79 76 75 68 67 61 57 
   3   0   0   0   0   0   0   0   0   0   0   0   5   0   0   0   0   0   0   0   0   0   0   6   0   0   0   0   0   0   0  18 97 95 94 93 92 91 90 88 86 84 82 79 78 72 66 63 60 51 
   5   0   0   0   0   0   0   0   0   0   0   0   0   0   0   0   0   0   5   0   0   0   0   0   0   0   0   0   0   0   0  17 100 96 95 93 91 90 89 88 85 83 79 78 71 69 66 60 56 
   8   7   0   8   0   0   0   0   0   0   0   0   0   0   0   0   0   6   0   0   0   6   0   0   0   7   0   6   0   8   5  12 94 93 89 86 82 79 71 70 64 63 60 52 
   2   0   0   0   0   0   0   0   0   0   0   0   0   0   4   0   0   0   0  10   0   0   0   0   0   0   6   0   0   4   0  14 98 93 92 90 89 88 76 70 69 68 61 60 58 57 
   2   0   0   0   0   0   0   0   0   0   0   0   0   0   0   0   0  10   0   0   0   0   0   0   0   0   0   3   0   7   0  16 100 97 95 89 88 87 86 84 82 81 78 76 75 67 62 59 
   8   0   0   0   0   0   7   0   0   0   0   0   0   0   0   0   0   0   0  10   9   0   0   0   6   0   0   0   0   0   0  15 97 96 95 93 90 87 86 84 83 82 79 78 64 63 60 
   5   7   0   0   7   0   4   0   0   0   0   0   0   0   0   0   0   0   0   0   5   0   0   0   7   0   0  10   8   0   0  17 100 97 95 94 92 91 89 87 85 83 82 81 78 76 75 68 65 
   9   0   0   0   0   0   0   0   0   0   0   9   0   0   0   6   0   0   0   0   0   0   0   0   7   0   0   0   0   0   0  10 101 91 86 84 81 80 67 66 57 53 
   3   0   0   0   0   0   0   0   0   0   0   0   0   0   0   0   0   0   8   0   0   0   0   0   8   0   0   0   0   0   0  15 101 99 98 90 88 87 86 84 83 81 79 75 67 63 61 
   6   0   0   0   0   0   0   0   0   0   0   0   0   0   6   0   0   0   0   0   0   0   0   0   0   0   0   0   0   0   0  12 92 91 90 89 86 81 78 77 70 66 63 57 
   7   0   8   0   5   0   0   0   0   0   0   0   0   0   0   0   0   0   0   0   0   0   0   0   3   0   0   0   0   9   0  12 101 98 94 90 88 83 81 79 68 66 63 58 
   3   2   0   7   0   0   0   0   0   0   0   5   0   8   0   0   0   0   6   0   6   0   3   0   0   0   0  10   0   8   0  10 92 87 83 81 78 76 68 65 64 58 
   3   0   0   0   0   0   0   0   0   0   0   0   0   0   0   0   0   0   8   0   0   0   0   0   5   0   0   0   0   0   0  14 92 91 89 88 84 83 81 80 79 78 77 75 70 63 
   8   0   0   0   0   0   0   0   0   0   0   0   0   0   0   0   0   3   0   0   6   0  10   0   0   0   0   0   0   0   0  11 97 91 88 87 86 85 82 79 75 71 61 
  10   0   0   0   0   0   0   0   0   0   0   0   3   0   5   0   0   0   4   0   0   0   0   0   0   0   0   0   0   0   0  10 88 84 82 79 78 76 74 68 64 60 
   9   0   3   0   0   0   8   0   4   0   0   0   7   0   0   0   0   0   6   5   0   0   0   0   0   0   0   0   0   3   0  12 99 96 93 88 86 83 82 79 78 76 67 66 
  10   0   0   0   8   0   0   0   0   0   0   7   0   0   0   0   0   0   0   0   0   0   0   0   0   0   0   0   0   0   0  11 89 88 87 85 82 80 79 78 76 74 60 
   5   9   0   9   0   0   0   0   0   0   0   0   0   0   0   0   0   0   0   0   0   0   0   0   0   0   0   0   0   0   0   9 97 95 81 79 78 77 76 69 58 
   9   0   0   0   0   0   0   0   5   0   0   0   0   0   0   0   0   0   0   0   0   0   0   0   0   0   5   0   0   0   0  10 95 92 87 84 81 80 79 75 69 68 
   7   0   0   0   0   0   7   0   0   0   0   0   0   0   0   0   0   0   0   0   0   0   8   0   0   0   0   0   4   0   0  10 99 90 88 84 83 81 79 78 67 66 
   8   0   5   0   0   0   9   0   0   0   0   0   0   0   0   8   0   0   0   0   0   0   0   0   0   0   7   5   0   0   0   9 90 88 83 82 81 80 76 67 66 
  10   0   0   0   0   3   0   0   0   0   0   0   0   0   9   0   0   0   0   0   7   0   0   0   0   0   0   0   0   0   0  10 93 91 87 85 79 78 77 76 75 74 
   5   0   6   0   5   0   0   0   0   0   0   0   0   0   0   0   0   7   0   0   0   0   0   0   0   0   0   0   0   0   0   8 100 95 92 89 88 82 77 63 
   5   0   0   4   0   0   0   0   0   0   0   4   0   0   0   0   0   0   6   0   0   0   7  10   0   0   0   0   0   0   0   9 89 87 86 81 80 78 77 76 74 
   6  10   0   0   0   0   0   8   5   0   8   0   8   5   0   0   0   0   0   0   0   0   0   0   0   0  10   0   0   0   0   8 93 91 86 81 80 79 78 68 
  10   0   0   0   0   0   0   0   0   0   0   0   4   0   8   5   9   0   0   0   0   0   0   0   0   0   0   0   0   0   5   7 96 89 83 76 75 74 68 
   7   5   4   4   0   0   0   5   0   0   0   0   0   0   0   6   0   0   0   0   0   0   0   0   0   0   0   0   4   0   0   7 99 92 91 90 83 78 74 
   2   0   0   0   0   0   9   0   0   0   0   0   0   0   0   0   0   0   0   0   0   0   0   0   0   0   0   0   0   0   5   6 98 94 89 79 76 74 
   1   0   0   0   0   0   0   0   0   0   0   0   0   0   0   0   0   0   6   0   7   0   0   0   0   0   0   3   0   0   0   6 101 90 80 78 75 74 
   2   4   0   0   0   9   0   0   0  10   0   0   0   0   0   0   0   9   0   0   6   5   0   0   0   0   0   0   0   0   0   5 94 85 79 77 66 
   6   0   0   0   0   0   0  10   0   0   0   0   0   0   0   0   0   0   0   0   0   0   0   0   0   0   0   0   0   0   0   4 86 82 80 63 
   6   0  10   0   0   0   0   7   0   0   0   0   0   5   0   0   0   0   0   0   0   0   8   0   0   0   0   0   0   0   5   4 85 83 82 74 
   9   0   0   0   0  10   0   3   0   0   0   0   0   0   0   0   0   0   0   5   0   0   0   0   0   0   6   0   0  10   0   4 84 82 75 74 
   3   0   0  10   0   0   0   0   0   0   0   0   0   0   0   0  10   0   0   0   0   0   0   0  10   0   0   0   0   0   0   4 80 79 77 74 
   3   0  10   0   0   6   7   0   0   0   0   0   0   0   9   0   0   0   0   0   0   0   0   0   0   0   0   0   0   0   0   3 81 77 75 
   1   0   0   0   0   0   0   0   0   0   0   0   0   0   0   0   0   0   0   0   0   0   0   0   0   0   0   0   0   0   7   3 80 78 74 
   7   0   0   8   0   0   0   0   0   6   6   0   0   0   0   0   0   0   0   0   6   0   0   0   0   0   3   0   0   0   0   3 90 85 79 
  10   0   0   0   0   0   0   0   0   0   0   0   0   0   0   0   5   0   0   0   0   0   0   6   0   0   0   0   0   0   0   2 76 74 
   9   0   0   0   0   0   0   0   9   0   0   9   0   0   6   4   4   0   0   0   0   0   0   5   0   0   0   0   6   0   0   2 85 80 
  10   0   0   0   0   4   0   0   0   0   4   0   0   5   0   0   0   0   0   0   0   0   0   0   0   0   0   0   0   0   0   2 86 80 
   5   0   0   0   0   0   0   7   0   0   0   0   0   0   0   0   0   0   0   0  10   0   0   0   0   8   0   0   0   0   0   1 75 
   9   0   0   0   0   0   0   0   0   0  10   0   0   0   0   4   0   0   0   0   0   0   0   0   0   0   0   0   5   0   0   1 74 
   6   0   0   5   0   0   0   0   0   0   0   4   6   0   0   0   0   0   0   0   7   0   0   0   4   0   0   0   0   0   0   1 77 
   4   3   0   6   0   0   0   0   0   0   0   0   0   0   0   0   0   0   0   0   0   0   0   0   0   2   0   0   8   0   0   1 74 
   4   0   0   0   0   0   0   0   0   0   0   0   1   0   5   0   0   0   0   0   0   0   4   0   0   0   0   0   0   8   9   1 87 
   8   0   0   0   0   0   0   5   9   0   0   0   8   0   0   0   0   0   0   0   5   2   0   0   0   0   0   0   0   0   0   1 84 
   9   0   0   6   0   0   0   0   0   3   0   0   0   0   0   0   0   0   0   0   0   0   0   0   0   0   0   0   0   0   0   1 74 
   6   0   4   0   0   0   0   0   0   0   0   0   0   0   0   0   0   0   0   0   0   0   0   0   8   0   7   0   7   0   0   1 88 
  10   0   0   6   0   0   0   0   0   0   0   0   0   0   0   5   0   4   0   0   0   0   0   0   0   0   0   0   0   0   0   1 102
   7   0   0   0   6   0   4   0   0   0   0   0   0   0   0   5   0   9   0   0   3   0   0   0   0   0   0   0   0   0   0   1 102
   5   4   0   0   0   0   0   0   0   7   0   0   0   0   0   9   0   0   0   0   0   0   0   0   0   0   4   0   0   0   0   1 102
   7   0   0   0   2   0   0   0   0   7   0   0   0   0   0   0   0   0   0   0   0   0   0   0   0   0   0   0   0   0   0   1 102
   5   0   0   0   0   0   5   0   0   0   0   0   0   0   0   0   0   0   0   0   0   0   0   0   0   0   0   0   0   0   4   1 102
   4   0   0   0   0   0   0   0   0   0   0   0   0   6   0   0   0   0   0   0   0   0   0   0   0   0   0   0   0   0   0   1 102
  10   0   0   0   0   0   4   0   0   0   0   0   0   6   0   0   0   0   0   0   0   0   0   0   0   0   0   0   0   0   0   1 102
   8   0   0   0  10   0   0   0   0   0   0   0   0   7   0   0   0   0  10   0   0   0   0   6   6   8   0   0   0   5   6   1 102
   1   0   0   0   0   0   0   0   0   0   0   3   0   0   0   0   0   7   7   0   0   0   0   4   0   0   6   0   0   0   0   1 102
   1   0   0   0   0   6   0   0   0   0   0   0   0   0   0   0   0   6   0   6   0   0   0   0   0   0   0   0   0   0   0   1 102
   3   0   0   0   0   0   0   0   0   0   0   0   6   0   0   8   0   0   0   3   0   0   8   0   0   8   9   0   0   0   0   1 102
   4   0   0   5   0   0   0   0   0   0   9   0   0   0   0   0   0   6   0   0   0   0   0   0   0   0   0   0   0   0   0   1 102
   4   0   0   0   0   8   0   0   0   0   0   0   0   0   0   0   0   0   0   0   0   0   0   0   0   0   0   0   0   0   0   1 102
   3   0   0   0   0   9   0   0   0   0   5   0   0   0   6   0   0   0   7   0   5   0   0   7   0   0   0   0   0   0   0   1 102
  10   0   0   0   0   7   0   0   0   9   0   0   0   0   0   0   0   0   0   0   7   0   0   0   0   0   0   0   0   4   0   1 102
   2   0   0   0   0   0   0   0   0   0   6   0   8   0   0   0   0   0   0   0   0   0   0   8   0   0   7   0   0   0   0   1 102
   9   0   6   0   0   0   0   0   0   0   0   0   5   0   0   0   0   0   0   5   0   0   0   0   0   0   0   0   0   0   0   1 102
  10   7   0   0   0   0   0   0   0   0   0  10   0   0   0   0   0   0   0   0   0   0   0   0   0   0   0   0   0   0   0   1 102
   3   0   0   0   0   0   0   0   0   0   6   0  10  10   0   6   0   0   0   0   0   0   0   0   0   0   0   0   0   0   0   1 102
   5   7   0   0   0   0   8   0   0   0   0   0   0   0   0   0   0   0   0   0   0   8   0   0   0   0   0   0   0   0   0   1 102
  10   0   0   0   0   0   0   0   0   0   0   0   0   0   0   7   0   0   0   0   0   0   0   0   0   0   0   0   0   0   0   1 102
   6   0   0   0   0   0   0   0   0   0   0   0   0   0   3   0   0   0   7   0   0   0   0   0   6   0   0   0   0   0   0   1 102
  10  10   0   0   7   0   0   0   0   0   0   0   0   0   4   0   0   0   4   0   0   0   0   0   0   0   0   0   6   0   0   1 102
   7   0   0   0   0   0   0   0   0   0   0   0   0   0   0   0   6   0   0   8   0   0   0   0   0   0   0   0   0   0   7   1 102
   8   0   0   0   0   0   0   0   0   7   0   0   0   0   8   0   0   0   0   0   0   0   0   0   0   8   0   0   0   0   0   1 102
   2   0   0   0   0   0   0   0   0   0   0   6   0   6   9   0   0   5   0   0   0   0   0   0   0   0   0   0   0   0   0   1 102
   2   0   0   0   0   0   0   0   0   0   0   0   0   6   7   0   0   0   6   0   0   0   0   0   0   0   0   0   0   7   0   1 102
   9   0   7   6   0   5   0   0   0   0   1   0   9   0   0   0   0   0   0   0   0   0   0   0   0   0   0   0   0   0  10   1 102
   0   0   0   0   0   0   0   0   0   0   0   0   0   0   0   0   0   0   0   0   0   0   0   0   0   0   0   0   0   0   0   0 
